jobs  (incl. supersource/sink ):	52
RESOURCES
- renewable                 : 2 R
- nonrenewable              : 2 N
- doubly constrained        : 0 D
************************************************************************
PRECEDENCE RELATIONS:
jobnr.    #modes  #successors   successors
1	1	9		2 3 4 5 6 8 14 16 19 
2	3	8		25 22 20 17 13 12 11 7 
3	3	6		22 20 13 12 11 9 
4	3	5		17 13 12 10 7 
5	3	4		23 22 12 7 
6	3	6		30 29 21 18 17 15 
7	3	8		34 33 30 29 27 26 24 15 
8	3	8		34 33 31 30 29 28 26 24 
9	3	6		34 33 29 26 23 15 
10	3	6		34 33 30 26 24 15 
11	3	9		49 35 34 33 31 27 26 24 23 
12	3	6		34 31 30 29 28 24 
13	3	6		38 37 33 32 30 28 
14	3	5		51 50 33 28 26 
15	3	7		50 49 48 38 32 31 28 
16	3	7		51 50 49 36 33 32 29 
17	3	4		50 49 28 24 
18	3	6		50 49 48 45 39 26 
19	3	5		50 49 39 35 26 
20	3	5		51 39 36 32 30 
21	3	7		49 41 39 37 35 34 31 
22	3	8		50 49 48 45 40 37 36 32 
23	3	8		51 48 47 45 41 39 37 36 
24	3	6		48 45 40 38 36 32 
25	3	5		50 48 47 41 31 
26	3	5		40 38 37 36 32 
27	3	5		51 48 40 36 32 
28	3	5		47 46 39 36 35 
29	3	5		46 41 39 37 35 
30	3	6		50 49 48 45 41 40 
31	3	5		51 46 45 42 36 
32	3	4		47 46 43 41 
33	3	3		48 44 41 
34	3	3		45 44 40 
35	3	2		45 40 
36	3	2		44 43 
37	3	2		43 42 
38	3	2		46 43 
39	3	1		40 
40	3	1		42 
41	3	1		42 
42	3	1		52 
43	3	1		52 
44	3	1		52 
45	3	1		52 
46	3	1		52 
47	3	1		52 
48	3	1		52 
49	3	1		52 
50	3	1		52 
51	3	1		52 
52	1	0		
************************************************************************
REQUESTS/DURATIONS
jobnr.	mode	dur	R1	R2	N1	N2	
------------------------------------------------------------------------
1	1	0	0	0	0	0	
2	1	7	6	4	7	10	
	2	8	4	4	7	9	
	3	10	3	4	5	9	
3	1	3	4	4	9	8	
	2	5	3	4	7	6	
	3	10	3	4	7	5	
4	1	1	9	6	8	6	
	2	4	8	4	7	6	
	3	10	8	4	5	6	
5	1	2	7	5	8	7	
	2	3	6	4	4	6	
	3	10	5	1	4	5	
6	1	8	8	7	4	3	
	2	9	6	6	3	2	
	3	10	3	6	2	1	
7	1	1	5	2	7	9	
	2	2	4	2	6	8	
	3	5	4	1	5	8	
8	1	5	5	5	6	6	
	2	6	4	4	6	5	
	3	9	2	4	5	2	
9	1	2	6	9	8	8	
	2	3	4	6	7	7	
	3	10	4	4	5	7	
10	1	1	5	6	4	6	
	2	8	4	5	4	5	
	3	9	4	3	4	5	
11	1	2	9	10	9	4	
	2	7	9	4	9	3	
	3	8	9	1	8	2	
12	1	1	3	9	8	2	
	2	2	3	7	5	1	
	3	7	3	7	3	1	
13	1	2	8	9	9	10	
	2	3	6	9	9	10	
	3	8	6	8	9	10	
14	1	1	8	10	7	9	
	2	2	8	8	7	5	
	3	3	8	8	7	2	
15	1	4	7	7	9	9	
	2	6	6	6	8	9	
	3	8	6	4	6	9	
16	1	8	6	9	4	4	
	2	9	5	8	3	3	
	3	10	4	5	2	1	
17	1	5	9	7	6	10	
	2	6	6	6	5	8	
	3	10	3	4	5	8	
18	1	2	10	10	10	4	
	2	3	4	9	6	4	
	3	8	3	7	6	1	
19	1	4	3	8	1	6	
	2	7	3	7	1	5	
	3	9	3	6	1	4	
20	1	2	9	8	7	7	
	2	8	7	6	4	4	
	3	10	5	4	3	1	
21	1	4	4	7	8	4	
	2	5	3	5	4	4	
	3	10	2	3	4	2	
22	1	4	6	8	3	6	
	2	6	6	7	2	5	
	3	10	4	5	1	3	
23	1	2	4	7	8	3	
	2	5	3	7	8	2	
	3	7	3	4	8	1	
24	1	8	6	4	7	6	
	2	9	4	4	7	6	
	3	10	1	4	6	5	
25	1	1	3	8	5	6	
	2	4	2	8	4	4	
	3	8	2	7	4	2	
26	1	1	7	8	5	3	
	2	2	7	6	4	2	
	3	6	7	5	2	2	
27	1	2	3	3	5	5	
	2	4	3	3	5	4	
	3	5	3	3	5	3	
28	1	2	5	7	1	8	
	2	5	5	6	1	5	
	3	10	4	6	1	2	
29	1	6	6	6	3	3	
	2	9	5	3	2	2	
	3	10	5	3	2	1	
30	1	3	5	4	10	9	
	2	5	5	2	6	9	
	3	6	3	2	3	9	
31	1	7	7	5	10	6	
	2	8	3	4	9	5	
	3	9	1	3	9	4	
32	1	1	9	6	2	5	
	2	7	7	3	2	2	
	3	10	6	3	2	1	
33	1	2	10	9	6	7	
	2	6	7	6	2	6	
	3	9	6	5	2	4	
34	1	3	1	10	5	6	
	2	5	1	9	3	6	
	3	10	1	8	3	6	
35	1	2	7	2	4	10	
	2	3	4	2	2	6	
	3	8	2	1	2	3	
36	1	1	8	8	6	5	
	2	4	7	6	5	3	
	3	5	5	4	3	2	
37	1	4	4	5	6	8	
	2	6	2	3	4	6	
	3	7	1	3	4	6	
38	1	1	9	6	6	3	
	2	5	7	5	6	2	
	3	10	7	5	6	1	
39	1	8	7	5	9	7	
	2	9	6	4	9	7	
	3	10	5	4	7	7	
40	1	4	3	8	7	9	
	2	8	3	7	6	5	
	3	9	1	6	6	4	
41	1	2	6	6	10	3	
	2	4	5	3	10	3	
	3	7	5	1	10	2	
42	1	2	3	8	9	7	
	2	4	2	7	4	7	
	3	5	2	7	3	6	
43	1	4	3	8	6	9	
	2	5	3	7	5	8	
	3	7	2	7	5	8	
44	1	1	2	7	10	7	
	2	8	2	7	6	6	
	3	9	2	3	5	5	
45	1	3	2	4	5	7	
	2	6	2	4	4	6	
	3	7	2	4	3	4	
46	1	6	10	10	9	3	
	2	8	8	10	7	3	
	3	10	8	10	5	3	
47	1	1	1	8	10	3	
	2	2	1	7	8	3	
	3	6	1	7	7	3	
48	1	6	5	5	7	6	
	2	7	3	3	6	6	
	3	8	3	1	6	5	
49	1	4	3	7	6	5	
	2	5	3	6	5	3	
	3	8	2	6	2	2	
50	1	5	8	8	4	7	
	2	9	5	7	3	6	
	3	10	2	6	3	6	
51	1	3	9	8	6	9	
	2	4	8	7	5	7	
	3	10	8	7	3	5	
52	1	0	0	0	0	0	
************************************************************************

 RESOURCE AVAILABILITIES 
	R 1	R 2	N 1	N 2
	53	56	276	259

************************************************************************
